NAME : 	X-n376-k94	
COMMENT : 	"Generated by Uchoa, Pecin, Pessoa, Poggi, Subramanian, and Vidal (2013)"	
TYPE : 	CVRP	
DIMENSION : 	376	
EDGE_WEIGHT_TYPE : 	EUC_2D	
CAPACITY : 	4	
NODE_COORD_SECTION		
1	0	0
2	989	944
3	5	730
4	769	200
5	698	515
6	72	561
7	52	397
8	839	271
9	140	724
10	339	580
11	30	850
12	820	815
13	555	844
14	388	709
15	323	438
16	159	983
17	989	233
18	644	167
19	766	151
20	387	690
21	193	140
22	863	192
23	149	123
24	609	119
25	121	204
26	625	537
27	716	123
28	8	219
29	429	956
30	844	970
31	661	66
32	347	202
33	979	314
34	255	772
35	634	504
36	466	48
37	330	90
38	929	245
39	236	130
40	785	0
41	251	486
42	758	203
43	524	280
44	798	71
45	212	595
46	967	478
47	504	429
48	581	534
49	883	899
50	605	414
51	640	692
52	287	432
53	641	771
54	53	374
55	344	325
56	647	72
57	63	976
58	519	235
59	485	226
60	469	527
61	433	168
62	538	891
63	884	433
64	142	134
65	234	394
66	473	750
67	815	622
68	130	999
69	655	588
70	16	235
71	503	614
72	477	489
73	87	78
74	689	289
75	631	868
76	304	743
77	624	81
78	338	865
79	831	984
80	312	157
81	563	205
82	641	435
83	189	201
84	277	903
85	906	949
86	601	486
87	746	904
88	557	409
89	854	201
90	50	20
91	994	111
92	584	875
93	316	741
94	150	56
95	377	988
96	371	762
97	401	741
98	890	126
99	797	335
100	9	301
101	923	259
102	586	782
103	103	99
104	166	987
105	896	750
106	383	86
107	603	863
108	590	78
109	40	554
110	755	120
111	554	351
112	603	102
113	279	404
114	1	481
115	667	931
116	609	350
117	237	925
118	755	779
119	607	107
120	589	379
121	744	130
122	469	142
123	491	28
124	602	512
125	329	925
126	933	714
127	391	982
128	285	336
129	730	604
130	758	153
131	831	894
132	355	206
133	382	353
134	887	133
135	286	835
136	103	743
137	929	750
138	89	845
139	689	515
140	903	330
141	713	261
142	465	494
143	922	783
144	703	619
145	282	745
146	939	801
147	320	130
148	531	25
149	887	949
150	765	502
151	174	187
152	993	233
153	982	13
154	25	851
155	228	228
156	774	690
157	722	969
158	133	115
159	175	663
160	134	106
161	469	233
162	325	78
163	166	547
164	416	965
165	284	119
166	169	541
167	302	72
168	537	7
169	434	329
170	59	816
171	139	74
172	495	746
173	890	453
174	719	235
175	184	528
176	863	957
177	821	476
178	700	645
179	400	49
180	293	179
181	104	271
182	882	906
183	701	394
184	18	221
185	819	101
186	971	397
187	454	960
188	348	657
189	745	122
190	3	510
191	981	283
192	167	323
193	869	880
194	844	154
195	53	544
196	443	825
197	879	809
198	683	254
199	402	59
200	719	31
201	664	737
202	541	249
203	204	791
204	615	578
205	821	381
206	767	595
207	594	837
208	331	365
209	145	850
210	537	263
211	157	938
212	147	59
213	138	140
214	354	240
215	435	976
216	917	593
217	504	643
218	552	29
219	420	473
220	576	665
221	648	637
222	792	147
223	55	92
224	635	236
225	180	793
226	561	629
227	743	136
228	686	38
229	415	672
230	678	523
231	834	48
232	897	63
233	868	224
234	786	394
235	132	915
236	513	74
237	757	295
238	859	823
239	398	959
240	360	94
241	506	114
242	699	907
243	842	46
244	341	918
245	240	808
246	434	756
247	628	184
248	938	599
249	287	889
250	22	999
251	374	19
252	707	963
253	681	762
254	750	278
255	652	340
256	788	95
257	653	222
258	730	753
259	484	573
260	395	854
261	144	957
262	404	597
263	849	288
264	321	355
265	294	41
266	43	501
267	175	695
268	439	486
269	949	443
270	245	169
271	848	143
272	198	396
273	153	521
274	436	824
275	703	624
276	126	2
277	659	523
278	370	702
279	528	268
280	330	488
281	420	88
282	630	555
283	568	848
284	992	800
285	92	747
286	126	152
287	18	275
288	875	151
289	537	418
290	598	777
291	527	104
292	819	522
293	316	915
294	112	727
295	697	29
296	243	155
297	195	437
298	563	820
299	583	383
300	645	62
301	645	77
302	174	884
303	193	643
304	96	519
305	336	319
306	998	266
307	990	922
308	753	566
309	646	537
310	412	328
311	386	478
312	344	512
313	151	492
314	625	949
315	251	208
316	680	428
317	135	843
318	171	19
319	405	150
320	146	654
321	82	631
322	417	950
323	121	982
324	209	292
325	180	796
326	51	162
327	628	521
328	913	714
329	820	662
330	596	600
331	605	229
332	378	53
333	95	447
334	899	216
335	685	705
336	304	713
337	305	760
338	636	482
339	954	189
340	470	857
341	450	97
342	811	886
343	453	64
344	230	919
345	732	350
346	258	429
347	674	351
348	20	95
349	57	298
350	136	129
351	62	213
352	852	852
353	538	110
354	435	522
355	518	452
356	816	415
357	987	849
358	472	154
359	893	13
360	579	281
361	418	966
362	391	92
363	490	482
364	890	711
365	552	802
366	667	416
367	571	581
368	71	227
369	311	90
370	598	723
371	845	677
372	528	124
373	321	456
374	817	624
375	978	276
376	239	960
DEMAND_SECTION		
1	0
2	1
3	1
4	1
5	1
6	1
7	1
8	1
9	1
10	1
11	1
12	1
13	1
14	1
15	1
16	1
17	1
18	1
19	1
20	1
21	1
22	1
23	1
24	1
25	1
26	1
27	1
28	1
29	1
30	1
31	1
32	1
33	1
34	1
35	1
36	1
37	1
38	1
39	1
40	1
41	1
42	1
43	1
44	1
45	1
46	1
47	1
48	1
49	1
50	1
51	1
52	1
53	1
54	1
55	1
56	1
57	1
58	1
59	1
60	1
61	1
62	1
63	1
64	1
65	1
66	1
67	1
68	1
69	1
70	1
71	1
72	1
73	1
74	1
75	1
76	1
77	1
78	1
79	1
80	1
81	1
82	1
83	1
84	1
85	1
86	1
87	1
88	1
89	1
90	1
91	1
92	1
93	1
94	1
95	1
96	1
97	1
98	1
99	1
100	1
101	1
102	1
103	1
104	1
105	1
106	1
107	1
108	1
109	1
110	1
111	1
112	1
113	1
114	1
115	1
116	1
117	1
118	1
119	1
120	1
121	1
122	1
123	1
124	1
125	1
126	1
127	1
128	1
129	1
130	1
131	1
132	1
133	1
134	1
135	1
136	1
137	1
138	1
139	1
140	1
141	1
142	1
143	1
144	1
145	1
146	1
147	1
148	1
149	1
150	1
151	1
152	1
153	1
154	1
155	1
156	1
157	1
158	1
159	1
160	1
161	1
162	1
163	1
164	1
165	1
166	1
167	1
168	1
169	1
170	1
171	1
172	1
173	1
174	1
175	1
176	1
177	1
178	1
179	1
180	1
181	1
182	1
183	1
184	1
185	1
186	1
187	1
188	1
189	1
190	1
191	1
192	1
193	1
194	1
195	1
196	1
197	1
198	1
199	1
200	1
201	1
202	1
203	1
204	1
205	1
206	1
207	1
208	1
209	1
210	1
211	1
212	1
213	1
214	1
215	1
216	1
217	1
218	1
219	1
220	1
221	1
222	1
223	1
224	1
225	1
226	1
227	1
228	1
229	1
230	1
231	1
232	1
233	1
234	1
235	1
236	1
237	1
238	1
239	1
240	1
241	1
242	1
243	1
244	1
245	1
246	1
247	1
248	1
249	1
250	1
251	1
252	1
253	1
254	1
255	1
256	1
257	1
258	1
259	1
260	1
261	1
262	1
263	1
264	1
265	1
266	1
267	1
268	1
269	1
270	1
271	1
272	1
273	1
274	1
275	1
276	1
277	1
278	1
279	1
280	1
281	1
282	1
283	1
284	1
285	1
286	1
287	1
288	1
289	1
290	1
291	1
292	1
293	1
294	1
295	1
296	1
297	1
298	1
299	1
300	1
301	1
302	1
303	1
304	1
305	1
306	1
307	1
308	1
309	1
310	1
311	1
312	1
313	1
314	1
315	1
316	1
317	1
318	1
319	1
320	1
321	1
322	1
323	1
324	1
325	1
326	1
327	1
328	1
329	1
330	1
331	1
332	1
333	1
334	1
335	1
336	1
337	1
338	1
339	1
340	1
341	1
342	1
343	1
344	1
345	1
346	1
347	1
348	1
349	1
350	1
351	1
352	1
353	1
354	1
355	1
356	1
357	1
358	1
359	1
360	1
361	1
362	1
363	1
364	1
365	1
366	1
367	1
368	1
369	1
370	1
371	1
372	1
373	1
374	1
375	1
376	1
DEPOT_SECTION	
	1
	-1
EOF	
